ilp_joint_2/output/erosion_ilp.lp
Maximize
  5.0741480021426755e-04 Z_111_1_0 + 0.00257498855126043 Z_111_1_1
   + 0.4564541646264313 Z_111_1_2 + 0.00408270918369107 Z_111_1_3
Subject To
 constraint1_1111: Z_111_1_0 + Z_111_1_1 + Z_111_1_2 + Z_111_1_3 <= 1
 constraint2_1110: Z_111_1_0 <= 1
 constraint2_1111: Z_111_1_1 <= 1
 constraint2_1112: Z_111_1_2 <= 1
 constraint2_1113: Z_111_1_3 <= 1
Bounds
Binaries
 Z_111_1_0 Z_111_1_1 Z_111_1_2 Z_111_1_3
End
