ilp_joint_2/output/erosion_ilp.sol
# Solution for model erosion_srl_ilp
# Objective value = 4.5645416462643135e-01
Z_111_1_0 0
Z_111_1_1 0
Z_111_1_2 1
Z_111_1_3 0
